19,7	0,0	13,0	6,3	0,0	0,0	0,0	0,0	0,0	7,9
14,4	10,9	0,0	17,5	8,1	0,0	0,0	5,8	0,0	0,0
0,0	0,0	8,9	0,0	5,5	11,5	0,0	0,0	12,0	0,0
5,9	0,0	7,7	0,0	0,0	0,0	14,4	0,0	0,0	0,0
0,0	14,0	0,0	16,5	9,0	0,0	0,0	7,3	0,0	0,0
0,0	19,6	6,7	0,0	15,4	17,6	0,0	0,0	12,7	0,0
0,0	11,2	0,0	12,4	0,0	0,0	13,7	0,0	0,0	10,0
17,2	0,0	9,3	0,0	0,0	0,0	0,0	0,0	0,0	7,5
0,0	7,3	0,0	11,5	6,4	0,0	0,0	8,8	0,0	0,0
0,0	0,0	6,3	0,0	0,0	6,9	19,2	0,0	0,0	18,8
									
4,0	2,7	4,2	3,9	3,2	4,0	4,9	4,0	3,8	4,3
